c "random instance"
p edges 150 1141
e 1 3
e 1 8
e 1 28
e 1 69
e 1 76
e 1 88
e 1 89
e 1 93
e 1 97
e 1 105
e 1 110
e 1 111
e 1 113
e 1 115
e 1 126
e 1 129
e 1 130
e 1 140
e 1 147
e 2 19
e 2 33
e 2 34
e 2 48
e 2 63
e 2 67
e 2 71
e 2 74
e 2 85
e 2 97
e 2 99
e 2 105
e 2 113
e 2 121
e 2 131
e 2 135
e 2 142
e 2 144
e 2 145
e 3 14
e 3 33
e 3 34
e 3 51
e 3 86
e 3 94
e 3 108
e 3 113
e 3 125
e 3 138
e 3 139
e 3 145
e 3 147
e 4 7
e 4 27
e 4 28
e 4 50
e 4 57
e 4 59
e 4 68
e 4 79
e 4 100
e 4 107
e 4 113
e 4 124
e 4 129
e 4 135
e 4 141
e 4 144
e 4 145
e 5 10
e 5 17
e 5 26
e 5 27
e 5 33
e 5 44
e 5 48
e 5 56
e 5 64
e 5 70
e 5 77
e 5 98
e 5 101
e 5 108
e 5 110
e 5 125
e 5 128
e 5 140
e 6 10
e 6 18
e 6 19
e 6 48
e 6 61
e 6 72
e 6 84
e 6 86
e 6 101
e 6 109
e 6 115
e 6 131
e 6 137
e 6 138
e 6 144
e 7 9
e 7 25
e 7 28
e 7 71
e 7 73
e 7 74
e 7 79
e 7 82
e 7 84
e 7 85
e 7 87
e 7 105
e 7 106
e 7 115
e 7 124
e 7 128
e 7 129
e 7 149
e 8 30
e 8 44
e 8 66
e 8 73
e 8 79
e 8 81
e 8 85
e 8 95
e 8 100
e 8 105
e 8 111
e 8 122
e 8 130
e 8 142
e 8 149
e 9 18
e 9 21
e 9 26
e 9 29
e 9 33
e 9 38
e 9 42
e 9 60
e 9 69
e 9 82
e 9 102
e 9 106
e 9 110
e 9 116
e 10 25
e 10 32
e 10 34
e 10 45
e 10 67
e 10 69
e 10 72
e 10 80
e 10 81
e 10 89
e 10 92
e 10 102
e 10 125
e 10 131
e 11 18
e 11 39
e 11 43
e 11 48
e 11 74
e 11 76
e 11 104
e 11 111
e 11 119
e 11 132
e 11 138
e 11 145
e 11 146
e 11 148
e 12 17
e 12 20
e 12 24
e 12 26
e 12 45
e 12 63
e 12 72
e 12 75
e 12 85
e 12 105
e 12 107
e 12 109
e 12 111
e 12 114
e 13 19
e 13 26
e 13 61
e 13 77
e 13 100
e 13 108
e 13 110
e 13 116
e 13 140
e 13 145
e 13 149
e 14 36
e 14 39
e 14 53
e 14 54
e 14 66
e 14 67
e 14 75
e 14 79
e 14 89
e 14 93
e 14 98
e 14 109
e 14 111
e 14 124
e 14 131
e 14 138
e 14 146
e 15 21
e 15 23
e 15 24
e 15 25
e 15 26
e 15 32
e 15 46
e 15 59
e 15 122
e 15 140
e 16 29
e 16 33
e 16 45
e 16 52
e 16 55
e 16 70
e 16 76
e 16 84
e 16 90
e 16 96
e 16 100
e 16 103
e 16 114
e 16 116
e 16 134
e 17 30
e 17 31
e 17 38
e 17 39
e 17 54
e 17 55
e 17 56
e 17 70
e 17 71
e 17 75
e 17 76
e 17 93
e 17 101
e 17 139
e 18 31
e 18 32
e 18 34
e 18 35
e 18 73
e 18 78
e 18 92
e 18 108
e 18 116
e 18 122
e 18 147
e 18 148
e 18 150
e 19 23
e 19 41
e 19 44
e 19 75
e 19 79
e 19 84
e 19 87
e 19 101
e 19 104
e 19 116
e 19 120
e 19 124
e 19 133
e 19 134
e 19 143
e 20 23
e 20 32
e 20 35
e 20 43
e 20 55
e 20 63
e 20 77
e 20 99
e 20 108
e 20 118
e 20 125
e 20 140
e 20 142
e 20 146
e 21 31
e 21 38
e 21 49
e 21 72
e 21 103
e 21 108
e 21 109
e 21 117
e 21 138
e 21 142
e 22 82
e 22 92
e 22 108
e 22 116
e 22 119
e 22 140
e 22 145
e 23 64
e 23 84
e 23 93
e 23 129
e 23 140
e 23 142
e 24 33
e 24 44
e 24 57
e 24 73
e 24 75
e 24 78
e 24 81
e 24 99
e 24 101
e 24 115
e 24 120
e 24 122
e 24 125
e 24 135
e 24 140
e 25 39
e 25 49
e 25 51
e 25 62
e 25 65
e 25 76
e 25 80
e 25 93
e 25 106
e 25 112
e 25 114
e 25 120
e 26 37
e 26 39
e 26 42
e 26 45
e 26 50
e 26 57
e 26 62
e 26 63
e 26 70
e 26 75
e 26 105
e 26 107
e 26 122
e 26 127
e 26 129
e 26 131
e 26 136
e 26 139
e 26 140
e 26 146
e 27 41
e 27 46
e 27 52
e 27 78
e 27 82
e 27 90
e 27 96
e 27 97
e 27 99
e 27 102
e 27 107
e 27 120
e 27 132
e 27 142
e 27 144
e 27 150
e 28 46
e 28 54
e 28 73
e 28 90
e 28 98
e 28 99
e 28 123
e 28 139
e 29 34
e 29 45
e 29 47
e 29 57
e 29 70
e 29 93
e 29 96
e 29 120
e 29 125
e 29 132
e 29 138
e 29 148
e 30 33
e 30 58
e 30 68
e 30 91
e 30 102
e 30 104
e 30 105
e 30 114
e 30 115
e 30 119
e 30 130
e 30 144
e 31 36
e 31 47
e 31 49
e 31 61
e 31 70
e 31 73
e 31 81
e 31 88
e 31 103
e 31 109
e 31 122
e 31 142
e 32 38
e 32 48
e 32 54
e 32 66
e 32 67
e 32 78
e 32 86
e 32 92
e 32 98
e 32 108
e 32 111
e 32 116
e 32 121
e 32 128
e 33 43
e 33 57
e 33 65
e 33 71
e 33 72
e 33 83
e 33 92
e 33 114
e 33 143
e 33 147
e 34 46
e 34 51
e 34 82
e 34 84
e 34 92
e 34 96
e 34 99
e 34 101
e 34 103
e 34 104
e 34 115
e 34 116
e 34 117
e 34 123
e 34 129
e 34 148
e 35 38
e 35 39
e 35 44
e 35 53
e 35 59
e 35 61
e 35 65
e 35 70
e 35 75
e 35 86
e 35 87
e 35 102
e 35 115
e 35 126
e 35 139
e 36 49
e 36 58
e 36 73
e 36 76
e 36 79
e 36 81
e 36 98
e 36 124
e 36 134
e 36 142
e 36 143
e 36 149
e 37 44
e 37 79
e 37 82
e 37 91
e 37 97
e 37 105
e 37 119
e 37 121
e 37 127
e 37 144
e 37 147
e 38 40
e 38 43
e 38 54
e 38 72
e 38 96
e 38 97
e 38 102
e 38 125
e 39 41
e 39 59
e 39 60
e 39 65
e 39 85
e 39 99
e 39 102
e 39 134
e 40 57
e 40 59
e 40 64
e 40 75
e 40 88
e 40 89
e 40 97
e 40 120
e 40 122
e 40 131
e 40 134
e 40 135
e 41 54
e 41 61
e 41 64
e 41 89
e 41 111
e 41 130
e 41 131
e 41 142
e 41 144
e 42 48
e 42 84
e 42 91
e 42 96
e 42 108
e 42 114
e 42 122
e 42 131
e 42 145
e 42 148
e 42 150
e 43 44
e 43 48
e 43 51
e 43 56
e 43 58
e 43 64
e 43 90
e 43 102
e 43 108
e 43 148
e 44 74
e 44 93
e 44 95
e 44 110
e 44 113
e 44 119
e 44 124
e 44 133
e 44 139
e 45 50
e 45 53
e 45 64
e 45 68
e 45 70
e 45 91
e 45 94
e 45 98
e 45 109
e 45 110
e 45 119
e 45 127
e 45 135
e 46 93
e 46 94
e 46 99
e 46 102
e 46 113
e 46 126
e 46 135
e 46 148
e 47 69
e 47 86
e 47 87
e 47 100
e 47 124
e 47 129
e 47 130
e 48 68
e 48 82
e 48 92
e 48 105
e 48 132
e 48 136
e 49 51
e 49 61
e 49 65
e 49 77
e 49 86
e 49 87
e 49 94
e 49 108
e 49 110
e 49 122
e 49 128
e 49 129
e 49 130
e 49 138
e 50 55
e 50 56
e 50 61
e 50 70
e 50 77
e 50 79
e 50 83
e 50 99
e 50 116
e 50 124
e 50 127
e 50 128
e 51 56
e 51 68
e 51 79
e 51 84
e 51 88
e 51 98
e 51 100
e 51 104
e 51 109
e 51 129
e 51 136
e 51 138
e 51 145
e 51 150
e 52 53
e 52 58
e 52 86
e 52 101
e 52 107
e 52 124
e 52 131
e 52 142
e 53 57
e 53 76
e 53 81
e 53 94
e 53 107
e 53 116
e 53 120
e 53 132
e 53 135
e 53 142
e 54 58
e 54 59
e 54 71
e 54 72
e 54 80
e 54 86
e 54 87
e 54 91
e 54 93
e 54 132
e 54 138
e 54 146
e 55 61
e 55 65
e 55 71
e 55 76
e 55 82
e 55 90
e 55 96
e 55 117
e 55 119
e 55 138
e 55 142
e 56 68
e 56 71
e 56 81
e 56 83
e 56 86
e 56 91
e 56 94
e 56 120
e 56 132
e 56 139
e 56 140
e 56 146
e 56 150
e 57 77
e 57 86
e 57 91
e 57 99
e 57 105
e 57 117
e 57 119
e 57 124
e 58 62
e 58 76
e 58 82
e 58 90
e 58 96
e 58 120
e 58 124
e 58 126
e 58 132
e 58 141
e 59 60
e 59 71
e 59 72
e 59 76
e 59 96
e 59 106
e 59 112
e 59 129
e 59 135
e 59 147
e 60 92
e 60 96
e 61 73
e 61 81
e 61 82
e 61 95
e 61 100
e 61 110
e 61 116
e 61 123
e 62 67
e 62 69
e 62 76
e 62 83
e 62 142
e 62 148
e 63 64
e 63 70
e 63 85
e 63 90
e 63 100
e 63 106
e 63 112
e 64 111
e 64 112
e 64 127
e 64 130
e 64 135
e 64 144
e 64 147
e 65 78
e 65 86
e 65 95
e 65 108
e 65 111
e 66 71
e 66 74
e 66 98
e 66 117
e 66 123
e 66 137
e 66 141
e 67 77
e 67 96
e 67 98
e 67 118
e 67 126
e 67 132
e 68 77
e 68 79
e 68 83
e 68 95
e 68 106
e 68 110
e 68 119
e 68 125
e 68 126
e 69 77
e 69 88
e 69 121
e 69 130
e 69 131
e 69 133
e 70 75
e 70 79
e 70 82
e 70 83
e 70 133
e 70 135
e 70 136
e 70 142
e 70 149
e 71 88
e 71 92
e 71 98
e 71 105
e 71 110
e 71 115
e 71 118
e 71 133
e 71 144
e 71 149
e 71 150
e 72 74
e 72 86
e 72 90
e 72 113
e 72 124
e 72 139
e 72 143
e 72 144
e 73 78
e 73 82
e 73 83
e 73 96
e 73 111
e 73 129
e 73 136
e 74 94
e 74 96
e 74 99
e 74 100
e 74 123
e 74 147
e 74 148
e 75 76
e 75 78
e 75 79
e 75 92
e 75 105
e 75 125
e 75 133
e 75 144
e 76 81
e 76 85
e 76 87
e 76 92
e 76 94
e 76 110
e 76 112
e 76 119
e 76 138
e 76 139
e 77 82
e 77 94
e 77 108
e 77 112
e 77 116
e 77 117
e 77 135
e 77 136
e 77 139
e 77 144
e 78 85
e 78 90
e 78 94
e 78 108
e 78 129
e 78 138
e 78 147
e 79 89
e 79 90
e 79 102
e 79 122
e 79 136
e 79 138
e 79 150
e 80 81
e 80 93
e 80 109
e 80 110
e 80 113
e 80 116
e 80 142
e 81 91
e 81 93
e 81 103
e 81 125
e 81 133
e 81 143
e 81 150
e 82 89
e 82 108
e 82 114
e 82 119
e 82 126
e 82 142
e 82 149
e 83 89
e 83 96
e 83 100
e 83 113
e 83 116
e 83 126
e 83 130
e 83 132
e 84 92
e 84 107
e 84 108
e 84 121
e 84 125
e 84 147
e 85 94
e 85 113
e 85 122
e 85 129
e 85 150
e 86 93
e 86 110
e 86 122
e 86 141
e 86 144
e 87 98
e 87 101
e 87 110
e 87 121
e 87 127
e 87 130
e 87 131
e 88 91
e 88 123
e 88 127
e 88 132
e 89 104
e 89 106
e 89 136
e 90 98
e 90 100
e 90 103
e 90 108
e 90 112
e 90 119
e 90 129
e 90 149
e 91 99
e 91 110
e 91 112
e 92 102
e 92 111
e 92 124
e 92 133
e 92 144
e 92 145
e 93 94
e 93 96
e 93 97
e 93 98
e 93 99
e 93 107
e 93 120
e 93 127
e 93 138
e 94 106
e 94 144
e 95 114
e 95 121
e 95 148
e 95 149
e 95 150
e 96 99
e 96 100
e 96 110
e 96 115
e 96 130
e 97 107
e 97 114
e 97 127
e 98 106
e 98 111
e 98 112
e 98 115
e 98 117
e 98 125
e 98 143
e 98 149
e 99 129
e 99 142
e 99 145
e 100 120
e 100 137
e 100 139
e 100 148
e 101 107
e 101 115
e 101 117
e 101 121
e 101 128
e 101 133
e 101 141
e 102 110
e 102 114
e 102 143
e 103 104
e 103 111
e 103 121
e 103 140
e 103 143
e 103 150
e 104 108
e 104 137
e 104 141
e 104 148
e 105 106
e 105 115
e 105 127
e 105 132
e 105 134
e 105 141
e 105 146
e 105 147
e 105 148
e 106 116
e 106 125
e 106 127
e 106 129
e 107 113
e 107 118
e 107 121
e 107 143
e 108 114
e 108 127
e 108 144
e 108 146
e 109 125
e 109 132
e 109 135
e 109 141
e 109 143
e 110 117
e 110 129
e 110 131
e 110 139
e 110 144
e 110 149
e 111 115
e 111 133
e 112 115
e 112 116
e 112 126
e 112 149
e 113 133
e 113 135
e 114 119
e 114 123
e 114 127
e 114 131
e 114 136
e 114 139
e 114 144
e 114 148
e 115 121
e 115 123
e 115 127
e 115 138
e 115 141
e 115 144
e 115 147
e 115 148
e 116 117
e 116 130
e 116 135
e 116 139
e 116 140
e 117 118
e 117 131
e 117 138
e 117 149
e 118 137
e 118 140
e 118 141
e 118 146
e 118 148
e 118 150
e 119 128
e 119 130
e 119 149
e 120 126
e 120 127
e 120 129
e 120 135
e 121 150
e 122 137
e 122 142
e 123 134
e 123 135
e 123 139
e 123 140
e 123 145
e 125 129
e 125 132
e 125 134
e 125 135
e 125 147
e 125 149
e 126 128
e 126 150
e 127 130
e 127 131
e 127 138
e 127 140
e 127 143
e 127 146
e 128 133
e 130 134
e 130 149
e 130 150
e 132 137
e 132 141
e 132 142
e 132 144
e 132 150
e 133 140
e 134 135
e 134 140
e 134 142
e 134 143
e 136 140
e 136 145
e 136 147
e 137 149
e 137 150
e 138 140
e 138 149
e 138 150
e 139 145
e 139 148
e 140 147
e 141 146
e 141 149
e 143 146
e 147 149
